(set-logic HORN)
(declare-fun assign_282_26_10_abs01 (Int Int Int Int Int Int) Bool)
(declare-fun assert_273_25_3_abs01 (Int Int Int Int Int Int) Bool)
(declare-fun assert_255_24_10_abs01 (Int Int Int Int Int Int) Bool)
(declare-fun while_285_22_8_abs01 (Int Int Int Int Int Int) Bool)
(declare-fun assert_217_21_8_abs01 (Int Int Int Int Int Int) Bool)
(declare-fun assign_187_20_8_abs01 (Int Int Int Int Int Int) Bool)
(declare-fun assert_181_19_8_abs01 (Int Int Int Int Int Int) Bool)
(declare-fun assign_151_18_1_abs01 (Int Int Int Int Int Int) Bool)
(declare-fun assert_145_17_8_abs01 (Int Int Int Int Int Int) Bool)
(declare-fun assign_112_15_5_abs01 (Int Int Int Int Int Int) Bool)
(declare-fun arrayassign_103_14_5_abs01 (Int Int Int Int Int Int) Bool)
(declare-fun assert_89_13_12_abs01 (Int Int Int Int Int Int) Bool)
(declare-fun while_115_12_1_abs01 (Int Int Int Int Int Int) Bool)
(declare-fun assign_46_11_1_abs01 (Int Int Int Int Int Int) Bool)
(declare-fun end_abs01 (Int Int Int Int Int Int) Bool)
(declare-fun start_abs01 (Int Int Int Int Int Int) Bool)
(assert (forall ((l Int) (i Int) (vabs_f_f Int) (vabs_s_f_f Int) (dest_select Int) (source_select Int)) (start_abs01 vabs_f_f dest_select vabs_s_f_f source_select l i)))
(assert (forall ((i Int) (l Int) (vabs_0_f_f Int) (vabs_0_s_f_f Int) (source_select Int) (dest_select Int)) (=> (start_abs01 vabs_0_f_f dest_select vabs_0_s_f_f source_select l i) (assign_46_11_1_abs01 vabs_0_f_f dest_select vabs_0_s_f_f source_select l i))))
(assert (forall ((i Int) (l Int) (vabs_0_f_f Int) (vabs_0_s_f_f Int) (source_select Int) (dest_select Int)) (=> (assign_46_11_1_abs01 vabs_0_f_f dest_select vabs_0_s_f_f source_select l i) (while_115_12_1_abs01 vabs_0_f_f dest_select vabs_0_s_f_f source_select l 0))))
(assert (forall ((l Int) (i Int) (vabs_0_f_f Int) (vabs_0_s_f_f Int) (dest_select Int) (source_select_0 Int) (source_select Int)) (=> (and (=> (= vabs_0_s_f_f i) (= source_select source_select_0)) (while_115_12_1_abs01 vabs_0_f_f dest_select i source_select l i) (while_115_12_1_abs01 vabs_0_f_f dest_select vabs_0_s_f_f source_select_0 l i) (not (= source_select 0))) (assert_89_13_12_abs01 vabs_0_f_f dest_select vabs_0_s_f_f source_select_0 l i))))
(assert (forall ((l Int) (i Int) (vabs_0_f_f Int) (vabs_0_s_f_f Int) (dest_select Int) (source_select_0 Int) (source_select Int)) (=> (and (=> (= vabs_0_s_f_f i) (= source_select source_select_0)) (while_115_12_1_abs01 vabs_0_f_f dest_select i source_select l i) (while_115_12_1_abs01 vabs_0_f_f dest_select vabs_0_s_f_f source_select_0 l i) (not (not (= source_select 0)))) (assert_145_17_8_abs01 vabs_0_f_f dest_select vabs_0_s_f_f source_select_0 l i))))
(assert (forall ((k Int) (i Int) (l Int) (source_select Int) (dest_select Int)) (=> (and (assert_89_13_12_abs01 k dest_select k source_select l i) (<= 0 k) (< k i)) (= dest_select source_select))))
(assert (forall ((i Int) (l Int) (vabs_0_f_f Int) (vabs_0_s_f_f Int) (source_select Int) (dest_select Int)) (=> (assert_89_13_12_abs01 vabs_0_f_f dest_select vabs_0_s_f_f source_select l i) (arrayassign_103_14_5_abs01 vabs_0_f_f dest_select vabs_0_s_f_f source_select l i))))
(assert (forall ((i Int) (l Int) (vabs_0_f_f Int) (vabs_0_s_f_f Int) (source_select_0 Int) (source_select Int) (dest_select Int)) (=> (and (=> (= i vabs_0_s_f_f) (= source_select source_select_0)) (arrayassign_103_14_5_abs01 vabs_0_f_f dest_select vabs_0_s_f_f source_select l i) (arrayassign_103_14_5_abs01 vabs_0_f_f dest_select i source_select_0 l i)) (assign_112_15_5_abs01 vabs_0_f_f (ite (= i vabs_0_f_f) source_select_0 dest_select) vabs_0_s_f_f source_select l i))))
(assert (forall ((i Int) (l Int) (vabs_0_f_f Int) (vabs_0_s_f_f Int) (source_select Int) (dest_select Int)) (=> (assign_112_15_5_abs01 vabs_0_f_f dest_select vabs_0_s_f_f source_select l i) (while_115_12_1_abs01 vabs_0_f_f dest_select vabs_0_s_f_f source_select l (+ i 1)))))
(assert (forall ((k Int) (i Int) (l Int) (source_select Int) (dest_select Int)) (=> (and (assert_145_17_8_abs01 k dest_select k source_select l i) (<= 0 k) (< k i)) (= source_select dest_select))))
(assert (forall ((i Int) (l Int) (vabs_0_f_f Int) (vabs_0_s_f_f Int) (source_select Int) (dest_select Int)) (=> (assert_145_17_8_abs01 vabs_0_f_f dest_select vabs_0_s_f_f source_select l i) (assign_151_18_1_abs01 vabs_0_f_f dest_select vabs_0_s_f_f source_select l i))))
(assert (forall ((i Int) (l Int) (vabs_0_f_f Int) (vabs_0_s_f_f Int) (source_select Int) (dest_select Int)) (=> (assign_151_18_1_abs01 vabs_0_f_f dest_select vabs_0_s_f_f source_select l i) (assert_181_19_8_abs01 vabs_0_f_f dest_select vabs_0_s_f_f source_select i i))))
(assert (forall ((k Int) (i Int) (l Int) (source_select Int) (dest_select Int)) (=> (and (assert_181_19_8_abs01 k dest_select k source_select l i) (<= 0 k) (< k l)) (= source_select dest_select))))
(assert (forall ((i Int) (l Int) (vabs_0_f_f Int) (vabs_0_s_f_f Int) (source_select Int) (dest_select Int)) (=> (assert_181_19_8_abs01 vabs_0_f_f dest_select vabs_0_s_f_f source_select l i) (assign_187_20_8_abs01 vabs_0_f_f dest_select vabs_0_s_f_f source_select l i))))
(assert (forall ((i Int) (l Int) (vabs_0_f_f Int) (vabs_0_s_f_f Int) (source_select Int) (dest_select Int)) (=> (assign_187_20_8_abs01 vabs_0_f_f dest_select vabs_0_s_f_f source_select l i) (assert_217_21_8_abs01 vabs_0_f_f dest_select vabs_0_s_f_f source_select l 0))))
(assert (forall ((k Int) (i Int) (l Int) (source_select Int) (dest_select Int)) (=> (and (assert_217_21_8_abs01 k dest_select k source_select l i) (<= 0 k) (< k l)) (= source_select dest_select))))
(assert (forall ((i Int) (l Int) (vabs_0_f_f Int) (vabs_0_s_f_f Int) (source_select Int) (dest_select Int)) (=> (assert_217_21_8_abs01 vabs_0_f_f dest_select vabs_0_s_f_f source_select l i) (while_285_22_8_abs01 vabs_0_f_f dest_select vabs_0_s_f_f source_select l i))))
(assert (forall ((l Int) (i Int) (vabs_0_f_f Int) (vabs_0_s_f_f Int) (dest_select Int) (source_select Int)) (=> (and (while_285_22_8_abs01 vabs_0_f_f dest_select vabs_0_s_f_f source_select l i) (< i l)) (assert_255_24_10_abs01 vabs_0_f_f dest_select vabs_0_s_f_f source_select l i))))
(assert (forall ((l Int) (i Int) (vabs_0_f_f Int) (vabs_0_s_f_f Int) (dest_select Int) (source_select Int)) (=> (and (while_285_22_8_abs01 vabs_0_f_f dest_select vabs_0_s_f_f source_select l i) (not (< i l))) (end_abs01 vabs_0_f_f dest_select vabs_0_s_f_f source_select l i))))
(assert (forall ((k Int) (i Int) (l Int) (source_select Int) (dest_select Int)) (=> (and (assert_255_24_10_abs01 k dest_select k source_select l i) (<= 0 k) (< k l)) (= source_select dest_select))))
(assert (forall ((i Int) (l Int) (vabs_0_f_f Int) (vabs_0_s_f_f Int) (source_select Int) (dest_select Int)) (=> (assert_255_24_10_abs01 vabs_0_f_f dest_select vabs_0_s_f_f source_select l i) (assert_273_25_3_abs01 vabs_0_f_f dest_select vabs_0_s_f_f source_select l i))))
(assert (forall ((i Int) (l Int) (source_select Int) (dest_select Int)) (=> (assert_273_25_3_abs01 i dest_select i source_select l i) (= source_select dest_select))))
(assert (forall ((i Int) (l Int) (vabs_0_f_f Int) (vabs_0_s_f_f Int) (source_select Int) (dest_select Int)) (=> (assert_273_25_3_abs01 vabs_0_f_f dest_select vabs_0_s_f_f source_select l i) (assign_282_26_10_abs01 vabs_0_f_f dest_select vabs_0_s_f_f source_select l i))))
(assert (forall ((i Int) (l Int) (vabs_0_f_f Int) (vabs_0_s_f_f Int) (source_select Int) (dest_select Int)) (=> (assign_282_26_10_abs01 vabs_0_f_f dest_select vabs_0_s_f_f source_select l i) (while_285_22_8_abs01 vabs_0_f_f dest_select vabs_0_s_f_f source_select l (+ i 1)))))
(check-sat)